unknown
(model
; cardinality of BoundSet is 2
(declare-sort BoundSet 0)
; rep: @uc_BoundSet_0
; rep: @uc_BoundSet_1
; cardinality of UnboundSet is 1
(declare-sort UnboundSet 0)
(declare-fun groundTerm_3 () UnboundSet)
(define-fun IsBearded ((BOUND_VARIABLE_443 BoundSet)) Bool true)
(define-fun SitsNear ((BOUND_VARIABLE_450 BoundSet) (BOUND_VARIABLE_451 BoundSet)) Bool true)
(define-fun IsWhite ((BOUND_VARIABLE_443 BoundSet)) Bool true)
(define-fun IsSitting ((BOUND_VARIABLE_443 BoundSet)) Bool false)
(define-fun SitsOutside ((BOUND_VARIABLE_443 BoundSet)) Bool false)
)
sat
(model
; cardinality of BoundSet is 1
(declare-sort BoundSet 0)
; rep: @uc_BoundSet_0
; cardinality of UnboundSet is 1
(declare-sort UnboundSet 0)
(declare-fun groundTerm_5 () UnboundSet)
(define-fun IsBearded ((BOUND_VARIABLE_467 BoundSet)) Bool true)
(define-fun SitsNear ((BOUND_VARIABLE_474 BoundSet) (BOUND_VARIABLE_475 BoundSet)) Bool true)
(define-fun IsWhite ((BOUND_VARIABLE_467 BoundSet)) Bool true)
(define-fun IsSitting ((BOUND_VARIABLE_467 BoundSet)) Bool false)
(define-fun SitsOutside ((BOUND_VARIABLE_467 BoundSet)) Bool true)
)
